23
16
20 16 11 9 3 7 21 8 14 15 13 17 4 22 19 5 10 12 6 1 0 18
7 3 16 8 20 4 17 22 1 12 6 13 0 5 2 21 15 9 19 18
11 2 16 1 12 17 8 6 21 18
20 7 21 4 6 11 0
5 20 1 17
12 3 1 10 21 6 15 20 0 7 5 14 13 19 2 4 9 11
11 7 17 3 6 9 4 2 22 0 16 19
9 15 1 14 3 16 22 21 11 12 10 7 18 5 19 20 13
10 9 5 12 18 16 17 11 22 4 20 14 2 15 3 19 7 6 1
9 19 20 1 10 14 17 2 12 6 7 5 4
8 16 12 10 21 19 5 20 11 14 9 1 18 4 17
21 19 8 16
9 14 12 3 0 6 22
20 14 22 13
22 12 1 19 2 16 8 11 10 20 13 18 4 5 21
6 0 20 14 11 21 12 8 22 2 1 9 19 16
